!----------------------------------------------------------------------
! Basis Set Exchange
! Version v0.8.13
! https://www.basissetexchange.org
!----------------------------------------------------------------------
!   Basis set: cc-pVDZ
! Description: cc-pVDZ
!        Role: orbital
!     Version: 1  (Data from ccRepo/Grant Hill)
!----------------------------------------------------------------------


$rem
    BASIS GEN
    PURECART 1
$end

$basis
H     0
S   4   1.00
      1.301000e+01           1.968500e-02
      1.962000e+00           1.379770e-01
      4.446000e-01           4.781480e-01
      1.220000e-01           5.012400e-01
S   1   1.00
      1.220000e-01           1.000000e+00
P   1   1.00
      7.270000e-01           1.0000000
****
C     0
S   9   1.00
      6.665000e+03           6.920000e-04
      1.000000e+03           5.329000e-03
      2.280000e+02           2.707700e-02
      6.471000e+01           1.017180e-01
      2.106000e+01           2.747400e-01
      7.495000e+00           4.485640e-01
      2.797000e+00           2.850740e-01
      5.215000e-01           1.520400e-02
      1.596000e-01          -3.191000e-03
S   9   1.00
      6.665000e+03          -1.460000e-04
      1.000000e+03          -1.154000e-03
      2.280000e+02          -5.725000e-03
      6.471000e+01          -2.331200e-02
      2.106000e+01          -6.395500e-02
      7.495000e+00          -1.499810e-01
      2.797000e+00          -1.272620e-01
      5.215000e-01           5.445290e-01
      1.596000e-01           5.804960e-01
S   1   1.00
      1.596000e-01           1.000000e+00
P   4   1.00
      9.439000e+00           3.810900e-02
      2.002000e+00           2.094800e-01
      5.456000e-01           5.085570e-01
      1.517000e-01           4.688420e-01
P   1   1.00
      1.517000e-01           1.000000e+00
D   1   1.00
      5.500000e-01           1.0000000
****
$end
