!----------------------------------------------------------------------
! Basis Set Exchange
! Version v0.8.13
! https://www.basissetexchange.org
!----------------------------------------------------------------------
!   Basis set: cc-pVDZ
! Description: cc-pVDZ
!        Role: orbital
!     Version: 1  (Data from ccRepo/Grant Hill)
!----------------------------------------------------------------------


$rem
    BASIS GEN
    PURECART 1
$end

$basis
N     0
S   9   1.00
      9.046000e+03           7.000000e-04
      1.357000e+03           5.389000e-03
      3.093000e+02           2.740600e-02
      8.773000e+01           1.032070e-01
      2.856000e+01           2.787230e-01
      1.021000e+01           4.485400e-01
      3.838000e+00           2.782380e-01
      7.466000e-01           1.544000e-02
      2.248000e-01          -2.864000e-03
S   9   1.00
      9.046000e+03          -1.530000e-04
      1.357000e+03          -1.208000e-03
      3.093000e+02          -5.992000e-03
      8.773000e+01          -2.454400e-02
      2.856000e+01          -6.745900e-02
      1.021000e+01          -1.580780e-01
      3.838000e+00          -1.218310e-01
      7.466000e-01           5.490030e-01
      2.248000e-01           5.788150e-01
S   1   1.00
      2.248000e-01           1.000000e+00
P   4   1.00
      1.355000e+01           3.991900e-02
      2.917000e+00           2.171690e-01
      7.973000e-01           5.103190e-01
      2.185000e-01           4.622140e-01
P   1   1.00
      2.185000e-01           1.000000e+00
D   1   1.00
      8.170000e-01           1.0000000
****
O     0
S   9   1.00
      1.172000e+04           7.100000e-04
      1.759000e+03           5.470000e-03
      4.008000e+02           2.783700e-02
      1.137000e+02           1.048000e-01
      3.703000e+01           2.830620e-01
      1.327000e+01           4.487190e-01
      5.025000e+00           2.709520e-01
      1.013000e+00           1.545800e-02
      3.023000e-01          -2.585000e-03
S   9   1.00
      1.172000e+04          -1.600000e-04
      1.759000e+03          -1.263000e-03
      4.008000e+02          -6.267000e-03
      1.137000e+02          -2.571600e-02
      3.703000e+01          -7.092400e-02
      1.327000e+01          -1.654110e-01
      5.025000e+00          -1.169550e-01
      1.013000e+00           5.573680e-01
      3.023000e-01           5.727590e-01
S   1   1.00
      3.023000e-01           1.000000e+00
P   4   1.00
      1.770000e+01           4.301800e-02
      3.854000e+00           2.289130e-01
      1.046000e+00           5.087280e-01
      2.753000e-01           4.605310e-01
P   1   1.00
      2.753000e-01           1.000000e+00
D   1   1.00
      1.185000e+00           1.0000000
****
$end
